org.jcp.jsr331.tck.linear/results/InsideOutsideProduction.mps
NAME          InsideOutsideProduction
ROWS
 N  _OBJ_
 E  C1
 E  C2
 E  C3
 E  C4
 E  C5
 E  C6
 E  C7
 L  C8
 E  C9
 E  C10
 E  C11
 E  C12
 L  C13
 E  C14
 G  C15
 E  C16
 G  C17
 E  C18
 G  C19
COLUMNS
    Vr0                                C1               0.600   C4               0.500   
    Vr0                                C9               0.200   C14                  1   
    Vr1                                C1               0.800   C5               0.400   
    Vr1                                C10              0.400   C16                  1   
    Vr2                                C1               0.300   C6               0.300   
    Vr2                                C11              0.600   C18                  1   
    Vr3                                C2               0.800   C14                  1   
    Vr4                                C2               0.900   C16                  1   
    Vr5                                C2               0.400   C18                  1   
    Vr6                                C1                  -1   C3                   1   
    Vr7                                C2                  -1   C3                   1   
    Vr8                                C4                  -1   C7                   1   
    Vr9                                C5                  -1   C7                   1   
    Vr10                               C6                  -1   C7                   1   
    Vr11                               C7                  -1   C8                   1   
    Vr12                               C9                  -1   C12                  1   
    Vr13                               C10                 -1   C12                  1   
    Vr14                               C11                 -1   C12                  1   
    Vr15                               C12                 -1   C13                  1   
    Vr16                               C14                 -1   C15                  1   
    Vr17                               C16                 -1   C17                  1   
    Vr18                               C18                 -1   C19                  1   
    Vr19                               C3                  -1   
    Vr19                               _OBJ_               -1   
RHS
    rhs                                C8                  20   C13                 40   
    rhs                                C15                100   C17                200   
    rhs                                C19                300   
BOUNDS
 UP bnd                                Vr0                100   
 UP bnd                                Vr1                200   
 UP bnd                                Vr2                300   
 UP bnd                                Vr3                100   
 UP bnd                                Vr4                200   
 UP bnd                                Vr5                300   
 UP bnd                                Vr6                310   
 UP bnd                                Vr7                380   
 UP bnd                                Vr8                 50   
 UP bnd                                Vr9                 80   
 UP bnd                                Vr10                90   
 UP bnd                                Vr11               220   
 UP bnd                                Vr12                20   
 UP bnd                                Vr13                80   
 UP bnd                                Vr14               180   
 UP bnd                                Vr15               280   
 UP bnd                                Vr16               200   
 UP bnd                                Vr17               400   
 UP bnd                                Vr18               600   
 UP bnd                                Vr19               690   
ENDATA
